MARKOV
1035
 2 2 2 2 2 2 2 2 2 2 2 2 2 2 2 2 2 2 2 2 2 2 2 2 2 2 2 2 2 2 2 2 2 2 2 2 2 2 2 2 2 2 2 2 2 2 2 2 2 2 2 2 2 2 2 2 2 2 2 2 2 2 2 2 2 2 2 2 2 2 2 2 2 2 2 2 2 2 2 2 2 2 2 2 2 2 2 2 2 2 2 2 2 2 2 2 2 2 2 2 2 2 2 2 2 2 2 2 2 2 2 2 2 2 2 2 2 2 2 2 2 2 2 2 2 2 2 2 2 2 2 2 2 2 2 2 2 2 2 2 2 2 2 2 2 2 2 2 2 2 2 2 2 2 2 2 2 2 2 2 2 2 2 2 2 2 2 2 2 2 2 2 2 2 2 2 2 2 2 2 2 2 2 2 2 2 2 2 2 2 2 2 2 2 2 2 2 2 2 2 2 2 2 2 2 2 2 2 2 2 2 2 2 2 2 2 2 2 2 2 2 2 2 2 2 2 2 2 2 2 2 2 2 2 2 2 2 2 2 2 2 2 2 2 2 2 2 2 2 2 2 2 2 2 2 2 2 2 2 2 2 2 2 2 2 2 2 2 2 2 2 2 2 2 2 2 2 2 2 2 2 2 2 2 2 2 2 2 2 2 2 2 2 2 2 2 2 2 2 2 2 2 2 2 2 2 2 2 2 2 2 2 2 2 2 2 2 2 2 2 2 2 2 2 2 2 2 2 2 2 2 2 2 2 2 2 2 2 2 2 2 2 2 2 2 2 2 2 2 2 2 2 2 2 2 2 2 2 2 2 2 2 2 2 2 2 2 2 2 2 2 2 2 2 2 2 2 2 2 2 2 2 2 2 2 2 2 2 2 2 2 2 2 2 2 2 2 2 2 2 2 2 2 2 2 2 2 2 2 2 2 2 2 2 2 2 2 2 2 2 2 2 2 2 2 2 2 2 2 2 2 2 2 2 2 2 2 2 2 2 2 2 2 2 2 2 2 2 2 2 2 2 2 2 2 2 2 2 2 2 2 2 2 2 2 2 2 2 2 2 2 2 2 2 2 2 2 2 2 2 2 2 2 2 2 2 2 2 2 2 2 2 2 2 2 2 2 2 2 2 2 2 2 2 2 2 2 2 2 2 2 2 2 2 2 2 2 2 2 2 2 2 2 2 2 2 2 2 2 2 2 2 2 2 2 2 2 2 2 2 2 2 2 2 2 2 2 2 2 2 2 2 2 2 2 2 2 2 2 2 2 2 2 2 2 2 2 2 2 2 2 2 2 2 2 2 2 2 2 2 2 2 2 2 2 2 2 2 2 2 2 2 2 2 2 2 2 2 2 2 2 2 2 2 2 2 2 2 2 2 2 2 2 2 2 2 2 2 2 2 2 2 2 2 2 2 2 2 2 2 2 2 2 2 2 2 2 2 2 2 2 2 2 2 2 2 2 2 2 2 2 2 2 2 2 2 2 2 2 2 2 2 2 2 2 2 2 2 2 2 2 2 2 2 2 2 2 2 2 2 2 2 2 2 2 2 2 2 2 2 2 2 2 2 2 2 2 2 2 2 2 2 2 2 2 2 2 2 2 2 2 2 2 2 2 2 2 2 2 2 2 2 2 2 2 2 2 2 2 2 2 2 2 2 2 2 2 2 2 2 2 2 2 2 2 2 2 2 2 2 2 2 2 2 2 2 2 2 2 2 2 2 2 2 2 2 2 2 2 2 2 2 2 2 2 2 2 2 2 2 2 2 2 2 2 2 2 2 2 2 2 2 2 2 2 2 2 2 2 2 2 2 2 2 2 2 2 2 2 2 2 2 2 2 2 2 2 2 2 2 2 2 2 2 2 2 2 2 2 2 2 2 2 2 2 2 2 2 2 2 2 2 2 2 2 2 2 2 2 2 2 2 2 2 2 2 2 2 2 2 2 2 2 2 2 2 2 2 2 2 2 2 2 2 2 2 2 2 2 2 2 2 2 2 2 2 2 2 2 2 2 2 2 2 2 2 2 2 2 2 2 2 2 2 2 2 2 2 2 2 2 2 2 2 2 2 2 2 2 2 2 2 2 2 2 2 2 2 2 2 2 2 2 2 2 2 2 2 2 2 2 2 2 2 2 2 2 2 2 2 2 2 2 2 2 2 2 2 2 2 2 2 2 2 2 2 2 2 2 2 2 2 2 2 2 2 2 2 2 2 2 2 2 2 2 2 2 2 2 2 2 2 2 2 2 2 2 2 2 2 2 2 2 2 2 2 2 2 2 2 2 2 2 2 2 2 2 2 2 2 2 2 2 2 2 2 2 2 2 2 2 2 2 2 2
1040
3	347 377 1034 
3	106 1033 1034 
3	40 1032 1033 
3	136 1031 1032 
3	225 1030 1031 
3	56 1029 1030 
3	327 1028 1029 
3	115 1027 1028 
3	92 1026 1027 
3	333 1025 1026 
3	406 1024 1025 
3	223 1023 1024 
3	451 1022 1023 
3	298 1021 1022 
3	14 1020 1021 
3	156 1019 1020 
3	167 1018 1019 
3	160 1017 1018 
3	131 1016 1017 
3	449 1015 1016 
3	83 1014 1015 
3	244 1013 1014 
3	450 1012 1013 
3	112 1011 1012 
3	434 1010 1011 
3	380 1009 1010 
3	351 1008 1009 
3	260 1007 1008 
3	152 1006 1007 
3	439 1005 1006 
3	459 1004 1005 
3	80 1003 1004 
3	236 1002 1003 
3	350 1001 1002 
3	417 1000 1001 
3	289 999 1000 
3	384 998 999 
3	17 997 998 
3	255 996 997 
3	216 995 996 
3	246 994 995 
3	16 993 994 
3	50 992 993 
3	27 991 992 
3	62 990 991 
3	394 989 990 
3	228 988 989 
3	281 987 988 
3	159 986 987 
3	42 985 986 
3	256 984 985 
3	234 983 984 
3	319 982 983 
3	49 981 982 
3	142 980 981 
3	367 979 980 
3	284 978 979 
3	135 977 978 
3	198 976 977 
3	100 975 976 
3	224 974 975 
3	81 973 974 
3	128 972 973 
3	461 971 972 
3	3 970 971 
3	468 969 970 
3	25 968 969 
3	329 967 968 
3	466 966 967 
3	386 965 966 
3	251 964 965 
3	431 963 964 
3	437 962 963 
3	339 961 962 
3	381 960 961 
3	418 959 960 
3	413 958 959 
3	109 957 958 
3	157 956 957 
3	43 955 956 
3	201 954 955 
3	402 953 954 
3	120 952 953 
3	200 951 952 
3	375 950 951 
3	31 949 950 
3	34 948 949 
3	78 947 948 
3	390 946 947 
3	401 945 946 
3	300 944 945 
3	399 943 944 
3	143 942 943 
3	64 941 942 
3	338 940 941 
3	210 939 940 
3	149 938 939 
3	116 937 938 
3	72 936 937 
3	231 935 936 
3	444 934 935 
3	308 933 934 
3	107 932 933 
3	75 931 932 
3	309 930 931 
3	258 929 930 
3	435 928 929 
3	99 927 928 
3	129 926 927 
3	278 925 926 
3	87 924 925 
3	403 923 924 
3	148 922 923 
3	315 921 922 
3	296 920 921 
3	13 919 920 
3	397 918 919 
3	11 917 918 
3	252 916 917 
3	454 915 916 
3	53 914 915 
3	73 913 914 
3	432 912 913 
3	187 911 912 
3	470 910 911 
3	292 909 910 
3	330 908 909 
3	196 907 908 
3	185 906 907 
3	416 905 906 
3	430 904 905 
3	352 903 904 
3	233 902 903 
3	18 901 902 
3	69 900 901 
3	145 899 900 
3	68 898 899 
3	357 897 898 
3	181 896 897 
3	117 895 896 
3	173 894 895 
3	321 893 894 
3	158 892 893 
3	304 891 892 
3	55 890 891 
3	369 889 890 
3	48 888 889 
3	170 887 888 
3	383 886 887 
3	127 885 886 
3	165 884 885 
3	10 883 884 
3	215 882 883 
3	186 881 882 
3	328 880 881 
3	89 879 880 
3	45 878 879 
3	410 877 878 
3	93 876 877 
3	60 875 876 
3	427 874 875 
3	385 873 874 
3	52 872 873 
3	229 871 872 
3	379 870 871 
3	28 869 870 
3	242 868 869 
3	250 867 868 
3	408 866 867 
3	361 865 866 
3	7 864 865 
3	283 863 864 
3	65 862 863 
3	465 861 862 
3	415 860 861 
3	137 859 860 
3	424 858 859 
3	453 857 858 
3	373 856 857 
3	455 855 856 
3	190 854 855 
3	2 853 854 
3	59 852 853 
3	362 851 852 
3	245 850 851 
3	257 849 850 
3	382 848 849 
3	235 847 848 
3	90 846 847 
3	217 845 846 
3	273 844 845 
3	183 843 844 
3	317 842 843 
3	340 841 842 
3	354 840 841 
3	154 839 840 
3	77 838 839 
3	192 837 838 
3	184 836 837 
3	97 835 836 
3	122 834 835 
3	341 833 834 
3	342 832 833 
3	79 831 832 
3	110 830 831 
3	188 829 830 
3	150 828 829 
3	175 827 828 
3	460 826 827 
3	141 825 826 
3	356 824 825 
3	254 823 824 
3	15 822 823 
3	218 821 822 
3	213 820 821 
3	282 819 820 
3	396 818 819 
3	370 817 818 
3	4 816 817 
3	206 815 816 
3	311 814 815 
3	22 813 814 
3	71 812 813 
3	51 811 812 
3	462 810 811 
3	270 809 810 
3	214 808 809 
3	58 807 808 
3	130 806 807 
3	164 805 806 
3	139 804 805 
3	366 803 804 
3	168 802 803 
3	95 801 802 
3	182 800 801 
3	320 799 800 
3	230 798 799 
3	360 797 798 
3	194 796 797 
3	20 795 796 
3	208 794 795 
3	344 793 794 
3	457 792 793 
3	163 791 792 
3	433 790 791 
3	222 789 790 
3	448 788 789 
3	266 787 788 
3	124 786 787 
3	426 785 786 
3	35 784 785 
3	176 783 784 
3	5 782 783 
3	436 781 782 
3	39 780 781 
3	46 779 780 
3	220 778 779 
3	447 777 778 
3	259 776 777 
3	63 775 776 
3	364 774 775 
3	161 773 774 
3	6 772 773 
3	133 771 772 
3	9 770 771 
3	297 769 770 
3	238 768 769 
3	378 767 768 
3	96 766 767 
3	299 765 766 
3	147 764 765 
3	463 763 764 
3	38 762 763 
3	306 761 762 
3	414 760 761 
3	277 759 760 
3	1 758 759 
3	285 757 758 
3	91 756 757 
3	98 755 756 
3	336 754 755 
3	323 753 754 
3	441 752 753 
3	67 751 752 
3	452 750 751 
3	291 749 750 
3	209 748 749 
3	102 747 748 
3	239 746 747 
3	121 745 746 
3	442 744 745 
1	744 
3	204 243 743 
3	358 742 743 
3	0 741 742 
3	312 740 741 
3	276 739 740 
3	345 738 739 
3	321 737 738 
3	207 736 737 
3	197 735 736 
3	371 734 735 
3	101 733 734 
3	467 732 733 
3	429 731 732 
3	326 730 731 
3	61 729 730 
3	405 728 729 
3	155 727 728 
3	438 726 727 
3	325 725 726 
3	286 724 725 
3	445 723 724 
3	180 722 723 
3	144 721 722 
3	178 720 721 
3	301 719 720 
3	275 718 719 
3	307 717 718 
3	123 716 717 
3	303 715 716 
3	295 714 715 
3	400 713 714 
3	324 712 713 
3	423 711 712 
3	174 710 711 
3	36 709 710 
3	388 708 709 
3	331 707 708 
3	220 706 707 
3	422 705 706 
3	265 704 705 
3	261 703 704 
3	391 702 703 
3	193 701 702 
3	359 700 701 
3	349 699 700 
3	30 698 699 
3	24 697 698 
3	21 696 697 
3	108 695 696 
3	171 694 695 
3	404 693 694 
3	310 692 693 
3	267 691 692 
3	280 690 691 
3	456 689 690 
3	227 688 689 
3	409 687 688 
3	219 686 687 
3	290 685 686 
3	74 684 685 
3	305 683 684 
3	368 682 683 
3	269 681 682 
1	681 
3	347 358 680 
3	136 679 680 
3	172 678 679 
3	412 677 678 
3	92 676 677 
3	103 675 676 
3	467 674 675 
3	177 673 674 
3	438 672 673 
3	313 671 672 
3	271 670 671 
3	211 669 670 
3	76 668 669 
3	249 667 668 
3	232 666 667 
3	57 665 666 
3	348 664 665 
3	400 663 664 
3	423 662 663 
3	388 661 662 
3	331 660 661 
3	265 659 660 
3	422 658 659 
3	407 657 658 
3	152 656 657 
3	417 655 656 
3	391 654 655 
3	189 653 654 
3	216 652 653 
3	195 651 652 
3	404 650 651 
3	171 649 650 
3	113 648 649 
3	33 647 648 
3	202 646 647 
3	263 645 646 
3	393 644 645 
3	203 643 644 
3	411 642 643 
3	334 641 642 
3	86 640 641 
3	140 639 640 
3	345 638 639 
3	205 637 638 
3	458 636 637 
3	166 635 636 
3	146 634 635 
3	371 633 634 
3	207 632 633 
3	104 631 632 
3	429 630 631 
3	272 629 630 
3	418 628 629 
3	155 627 628 
3	157 626 627 
3	286 625 626 
3	144 624 625 
3	180 623 624 
3	29 622 623 
3	253 621 622 
3	125 620 621 
3	123 619 620 
3	443 618 619 
3	387 617 618 
3	372 616 617 
3	322 615 616 
3	119 614 615 
3	19 613 614 
3	324 612 613 
3	116 611 612 
3	262 610 611 
3	138 609 610 
3	174 608 609 
3	332 607 608 
3	47 606 607 
3	191 605 606 
3	226 604 605 
3	376 603 604 
3	421 602 603 
3	349 601 602 
3	169 600 601 
3	24 599 600 
3	293 598 599 
3	132 597 598 
3	118 596 597 
3	288 595 596 
3	227 594 595 
3	219 593 594 
3	432 592 593 
3	199 591 592 
3	368 590 591 
3	318 589 590 
3	243 588 589 
3	248 587 588 
3	204 586 587 
3	114 585 586 
3	0 584 585 
3	312 583 584 
3	430 582 583 
3	126 581 582 
3	84 580 581 
3	321 579 580 
3	425 578 579 
3	101 577 578 
3	363 576 577 
3	446 575 576 
3	61 574 575 
3	405 573 574 
3	445 572 573 
3	287 571 572 
3	301 570 571 
3	178 569 570 
3	275 568 569 
3	346 567 568 
3	134 566 567 
3	237 565 566 
3	408 564 565 
3	343 563 564 
3	415 562 563 
3	36 561 562 
3	137 560 561 
3	221 559 560 
3	335 558 559 
3	455 557 558 
3	302 556 557 
3	70 555 556 
3	245 554 555 
3	382 553 554 
3	193 552 553 
3	273 551 552 
3	340 550 551 
3	314 549 550 
3	310 548 549 
3	267 547 548 
3	264 546 547 
3	280 545 546 
3	241 544 545 
3	153 543 544 
3	456 542 543 
3	337 541 542 
3	409 540 541 
3	74 539 540 
3	356 538 539 
3	218 537 538 
3	389 536 537 
3	398 535 536 
3	247 534 535 
3	276 533 534 
3	469 532 533 
3	353 531 532 
3	8 530 531 
3	51 529 530 
3	66 528 529 
3	58 527 528 
3	197 526 527 
3	326 525 526 
3	420 524 525 
3	325 523 524 
3	37 522 523 
3	307 521 522 
3	457 520 521 
3	374 519 520 
3	303 518 519 
3	295 517 518 
3	266 516 517 
3	220 515 516 
3	464 514 515 
3	261 513 514 
3	161 512 513 
3	111 511 512 
3	105 510 511 
3	94 509 510 
3	359 508 509 
3	32 507 508 
3	30 506 507 
3	21 505 506 
3	108 504 505 
3	54 503 504 
3	290 502 503 
3	305 501 502 
3	121 500 501 
3	269 499 500 
1	499 
3	151 469 498 
3	422 497 498 
3	316 496 497 
3	26 495 496 
3	82 494 495 
3	365 493 494 
3	44 492 493 
3	12 491 492 
3	419 490 491 
3	41 489 490 
3	162 488 489 
3	428 487 488 
3	268 486 487 
3	157 485 486 
3	279 484 485 
3	23 483 484 
3	355 482 483 
3	240 481 482 
3	88 480 481 
3	212 479 480 
3	274 478 479 
3	179 477 478 
3	392 476 477 
3	291 475 476 
3	85 474 475 
3	294 473 474 
3	440 472 473 
3	395 471 472 
1	471 
1	106 
1	136 
1	225 
1	56 
1	115 
1	412 
1	92 
1	41 
1	333 
1	162 
1	223 
1	451 
1	177 
1	156 
1	160 
1	131 
1	212 
1	76 
1	232 
1	348 
1	434 
1	423 
1	351 
1	265 
1	407 
1	439 
1	80 
1	459 
1	350 
1	289 
1	255 
1	50 
1	394 
1	228 
1	159 
1	256 
1	234 
1	171 
1	284 
1	135 
1	33 
1	198 
1	128 
1	202 
1	461 
1	263 
1	468 
1	25 
1	203 
1	329 
1	334 
1	466 
1	140 
1	345 
1	207 
1	431 
1	381 
1	429 
1	418 
1	272 
1	201 
1	402 
1	286 
1	200 
1	144 
1	29 
1	375 
1	31 
1	123 
1	34 
1	300 
1	399 
1	143 
1	119 
1	324 
1	210 
1	174 
1	191 
1	444 
1	309 
1	75 
1	258 
1	435 
1	99 
1	278 
1	376 
1	226 
1	403 
1	148 
1	349 
1	315 
1	13 
1	132 
1	397 
1	11 
1	252 
1	288 
1	73 
1	187 
1	470 
1	196 
1	243 
1	416 
1	114 
1	312 
1	352 
1	430 
1	18 
1	126 
1	69 
1	145 
1	357 
1	68 
1	84 
1	173 
1	12 
1	101 
1	304 
1	369 
1	48 
1	61 
1	405 
1	127 
1	383 
1	165 
1	355 
1	445 
1	287 
1	186 
1	328 
1	275 
1	45 
1	93 
1	60 
1	274 
1	385 
1	379 
1	28 
1	242 
1	250 
1	237 
1	361 
1	408 
1	65 
1	465 
1	424 
1	373 
1	335 
1	221 
1	455 
1	302 
1	362 
1	70 
1	90 
1	193 
1	317 
1	340 
1	314 
1	77 
1	192 
1	97 
1	342 
1	280 
1	79 
1	110 
1	150 
1	141 
1	356 
1	254 
1	218 
1	213 
1	398 
1	389 
1	247 
1	396 
1	276 
1	353 
1	311 
1	22 
1	71 
1	8 
1	51 
1	66 
1	462 
1	270 
1	214 
1	58 
1	197 
1	164 
1	366 
1	168 
1	420 
1	182 
1	320 
1	360 
1	20 
1	37 
1	344 
1	307 
1	457 
1	163 
1	222 
1	303 
1	295 
1	448 
1	426 
1	35 
1	176 
1	5 
1	294 
1	436 
1	46 
1	220 
1	63 
1	364 
1	161 
1	6 
1	133 
1	26 
1	105 
1	9 
1	238 
1	365 
1	96 
1	94 
1	299 
1	38 
1	359 
1	306 
1	32 
1	414 
1	428 
1	279 
1	21 
1	108 
1	285 
1	336 
1	179 
1	54 
1	85 
1	239 
1	121 
1	269 
1	347 
1	151 
1	358 
1	377 
1	40 
1	172 
1	327 
1	103 
1	467 
1	406 
1	298 
1	14 
1	438 
1	313 
1	271 
1	167 
1	211 
1	249 
1	449 
1	83 
1	244 
1	57 
1	400 
1	450 
1	112 
1	440 
1	380 
1	388 
1	331 
1	422 
1	260 
1	152 
1	236 
1	417 
1	391 
1	189 
1	17 
1	384 
1	246 
1	216 
1	16 
1	27 
1	62 
1	281 
1	42 
1	195 
1	319 
1	404 
1	49 
1	142 
1	367 
1	113 
1	100 
1	224 
1	81 
1	392 
1	3 
1	393 
1	411 
1	86 
1	386 
1	205 
1	458 
1	166 
1	251 
1	419 
1	146 
1	371 
1	437 
1	339 
1	104 
1	268 
1	413 
1	109 
1	157 
1	155 
1	43 
1	120 
1	180 
1	253 
1	125 
1	443 
1	78 
1	387 
1	390 
1	372 
1	401 
1	322 
1	19 
1	64 
1	338 
1	149 
1	116 
1	395 
1	72 
1	262 
1	138 
1	332 
1	47 
1	231 
1	107 
1	308 
1	316 
1	129 
1	87 
1	421 
1	169 
1	296 
1	24 
1	293 
1	118 
1	53 
1	454 
1	227 
1	219 
1	432 
1	292 
1	199 
1	368 
1	318 
1	330 
1	185 
1	204 
1	248 
1	0 
1	233 
1	181 
1	117 
1	82 
1	425 
1	321 
1	158 
1	363 
1	446 
1	55 
1	170 
1	10 
1	215 
1	178 
1	301 
1	89 
1	346 
1	410 
1	229 
1	52 
1	427 
1	134 
1	7 
1	343 
1	283 
1	415 
1	36 
1	137 
1	453 
1	190 
1	2 
1	59 
1	257 
1	245 
1	382 
1	235 
1	217 
1	273 
1	183 
1	23 
1	354 
1	154 
1	184 
1	240 
1	88 
1	310 
1	122 
1	267 
1	264 
1	341 
1	153 
1	241 
1	456 
1	337 
1	409 
1	188 
1	175 
1	74 
1	460 
1	15 
1	282 
1	370 
1	4 
1	469 
1	206 
1	130 
1	139 
1	326 
1	95 
1	325 
1	230 
1	194 
1	208 
1	374 
1	433 
1	266 
1	124 
1	39 
1	464 
1	447 
1	259 
1	261 
1	111 
1	297 
1	378 
1	44 
1	147 
1	463 
1	277 
1	30 
1	1 
1	91 
1	98 
1	323 
1	441 
1	67 
1	452 
1	291 
1	290 
1	209 
1	102 
1	305 
1	442 
0	

8
 1 0 0.9 0.1 0.9 0.1 0.81 0.19
8
 1 0 0 1 0.3 0 0.7 1
8
 1 0 0 1 0.5 0 0.5 1
8
 1 0 0 1 0.1 0 0.9 1
8
 1 0 0 1 0.9 0 0.1 1
8
 1 0 0 1 0.2 0 0.8 1
8
 1 0 0 1 0.9 0 0.1 1
8
 1 0 0 1 0.9 0 0.1 1
8
 1 0 0 1 0.7 0 0.3 1
8
 1 0 0 1 0.5 0 0.5 1
8
 1 0 0 1 0.5 0 0.5 1
8
 1 0 0 1 0.9 0 0.1 1
8
 1 0 0 1 0.9 0 0.1 1
8
 1 0 0 1 0.5 0 0.5 1
8
 1 0 0 1 0.9 0 0.1 1
8
 1 0 0 1 0.72 0 0.28 1
8
 1 0 0 1 0.9 0 0.1 1
8
 1 0 0 1 0.9 0 0.1 1
8
 1 0 0 1 0.5 0 0.5 1
8
 1 0 0 1 0.5 0 0.5 1
8
 1 0 0 1 0.8 0 0.2 1
8
 1 0 0 1 0.9 0 0.1 1
8
 1 0 0 1 0.3 0 0.7 1
8
 1 0 0 1 0.8 0 0.2 1
8
 1 0 0 1 0.2 0 0.8 1
8
 1 0 0 1 0.75 0 0.25 1
8
 1 0 0 1 0.9 0 0.1 1
8
 1 0 0 1 0.7 0 0.3 1
8
 1 0 0 1 0.3 0 0.7 1
8
 1 0 0 1 0.8 0 0.2 1
8
 1 0 0 1 0.9 0 0.1 1
8
 1 0 0 1 0.8 0 0.2 1
8
 1 0 0 1 0.1 0 0.9 1
8
 1 0 0 1 0.9 0 0.1 1
8
 1 0 0 1 0.1 0 0.9 1
8
 1 0 0 1 0.9 0 0.1 1
8
 1 0 0 1 0.9 0 0.1 1
8
 1 0 0 1 0.5 0 0.5 1
8
 1 0 0 1 0.9 0 0.1 1
8
 1 0 0 1 0.9 0 0.1 1
8
 1 0 0 1 0.2 0 0.8 1
8
 1 0 0 1 0.7 0 0.3 1
8
 1 0 0 1 0.3 0 0.7 1
8
 1 0 0 1 0.4 0 0.6 1
8
 1 0 0 1 0.9 0 0.1 1
8
 1 0 0 1 0.9 0 0.1 1
8
 1 0 0 1 0.5 0 0.5 1
8
 1 0 0 1 0.5 0 0.5 1
8
 1 0 0 1 0.85 0 0.15 1
8
 1 0 0 1 0.9 0 0.1 1
8
 1 0 0 1 0.09 0 0.91 1
8
 1 0 0 1 0.5 0 0.5 1
8
 1 0 0 1 0.5 0 0.5 1
8
 1 0 0 1 0.9 0 0.1 1
8
 1 0 0 1 0.5 0 0.5 1
8
 1 0 0 1 0.9 0 0.1 1
8
 1 0 0 1 0.1 0 0.9 1
8
 1 0 0 1 0.9 0 0.1 1
8
 1 0 0 1 0.9 0 0.1 1
8
 1 0 0 1 0.5 0 0.5 1
8
 1 0 0 1 0.5 0 0.5 1
8
 1 0 0 1 0.5 0 0.5 1
8
 1 0 0 1 0.9 0 0.1 1
8
 1 0 0 1 0.5 0 0.5 1
8
 1 0 0 1 0.5 0 0.5 1
8
 1 0 0 1 0.9 0 0.1 1
8
 1 0 0 1 0.5 0 0.5 1
8
 1 0 0 1 0.9 0 0.1 1
8
 1 0 0 1 0.3 0 0.7 1
8
 1 0 0 1 0.9 0 0.1 1
8
 1 0 0 1 0.5 0 0.5 1
8
 1 0 0 1 0.9 0 0.1 1
8
 1 0 0 1 0.1 0 0.9 1
8
 1 0 0 1 0.5 0 0.5 1
8
 1 0 0 1 0.9 0 0.1 1
8
 1 0 0 1 0.2 0 0.8 1
8
 1 0 0 1 0.9 0 0.1 1
8
 1 0 0 1 0.9 0 0.1 1
8
 1 0 0 1 0.6 0 0.4 1
8
 1 0 0 1 0.9 0 0.1 1
8
 1 0 0 1 0.9 0 0.1 1
8
 1 0 0 1 0 0 1 1
8
 1 0 0 1 0.05 0 0.95 1
8
 1 0 0 1 0.5 0 0.5 1
8
 1 0 0 1 0.9 0 0.1 1
8
 1 0 0 1 0.1 0 0.9 1
8
 1 0 0 1 0.9 0 0.1 1
8
 1 0 0 1 0.9 0 0.1 1
8
 1 0 0 1 0.2 0 0.8 1
8
 1 0 0 1 0.9 0 0.1 1
8
 1 0 0 1 0.9 0 0.1 1
8
 1 0 0 1 0.5 0 0.5 1
8
 1 0 0 1 0.9 0 0.1 1
8
 1 0 0 1 0.1 0 0.9 1
8
 1 0 0 1 0.1 0 0.9 1
8
 1 0 0 1 0.9 0 0.1 1
8
 1 0 0 1 0.5 0 0.5 1
8
 1 0 0 1 0.5 0 0.5 1
8
 1 0 0 1 0.9 0 0.1 1
8
 1 0 0 1 0.4 0 0.6 1
8
 1 0 0 1 0.7 0 0.3 1
8
 1 0 0 1 0.5 0 0.5 1
8
 1 0 0 1 0.5 0 0.5 1
8
 1 0 0 1 0.9 0 0.1 1
8
 1 0 0 1 0.1 0 0.9 1
8
 1 0 0 1 0.5 0 0.5 1
8
 1 0 0 1 0.1 0 0.9 1
8
 1 0 0 1 0.9 0 0.1 1
8
 1 0 0 1 0.9 0 0.1 1
8
 1 0 0 1 0.5 0 0.5 1
8
 1 0 0 1 0.1 0 0.9 1
8
 1 0 0 1 0.9 0 0.1 1
8
 1 0 0 1 0.9 0 0.1 1
8
 1 0 0 1 0.9 0 0.1 1
8
 1 0 0 1 0.5 0 0.5 1
8
 1 0 0 1 0.5 0 0.5 1
8
 1 0 0 1 0.89 0 0.11 1
8
 1 0 0 1 0.9 0 0.1 1
8
 1 0 0 1 0.5 0 0.5 1
8
 1 0 0 1 0.47 0 0.53 1
8
 1 0 0 1 0.7 0 0.3 1
8
 1 0 0 1 0.5 0 0.5 1
8
 1 0 0 1 0.1 0 0.9 1
8
 1 0 0 1 0.7 0 0.3 1
8
 1 0 0 1 0.9 0 0.1 1
8
 1 0 0 1 0.1 0 0.9 1
8
 1 0 0 1 0.9 0 0.1 1
8
 1 0 0 1 0.9 0 0.1 1
8
 1 0 0 1 0.89 0 0.11 1
8
 1 0 0 1 0.5 0 0.5 1
8
 1 0 0 1 0.8 0 0.2 1
8
 1 0 0 1 0.9 0 0.1 1
8
 1 0 0 1 0.9 0 0.1 1
8
 1 0 0 1 0.2 0 0.8 1
8
 1 0 0 1 0.9 0 0.1 1
8
 1 0 0 1 0.19 0 0.81 1
8
 1 0 0 1 0.7 0 0.3 1
8
 1 0 0 1 0.89 0 0.11 1
8
 1 0 0 1 0.9 0 0.1 1
8
 1 0 0 1 0.8 0 0.2 1
8
 1 0 0 1 0.9 0 0.1 1
8
 1 0 0 1 0.9 0 0.1 1
8
 1 0 0 1 0.9 0 0.1 1
8
 1 0 0 1 0.3 0 0.7 1
8
 1 0 0 1 0.5 0 0.5 1
8
 1 0 0 1 0.9 0 0.1 1
8
 1 0 0 1 0.3 0 0.7 1
8
 1 0 0 1 0.5 0 0.5 1
8
 1 0 0 1 0.05 0 0.95 1
8
 1 0 0 1 0.9 0 0.1 1
8
 1 0 0 1 0.1 0 0.9 1
8
 1 0 0 1 0.2 0 0.8 1
8
 1 0 0 1 0.8 0 0.2 1
8
 1 0 0 1 0.9 0 0.1 1
8
 1 0 0 1 0.1 0 0.9 1
8
 1 0 0 1 0.01 0 0.99 1
8
 1 0 0 1 0.8 0 0.2 1
8
 1 0 0 1 0.5 0 0.5 1
8
 1 0 0 1 0.3 0 0.7 1
8
 1 0 0 1 0.9 0 0.1 1
8
 1 0 0 1 0.3 0 0.7 1
8
 1 0 0 1 0.5 0 0.5 1
8
 1 0 0 1 0.9 0 0.1 1
8
 1 0 0 1 0.4 0 0.6 1
8
 1 0 0 1 0.9 0 0.1 1
8
 1 0 0 1 0.95 0 0.05 1
8
 1 0 0 1 0.3 0 0.7 1
8
 1 0 0 1 0.35 0 0.65 1
8
 1 0 0 1 0.5 0 0.5 1
8
 1 0 0 1 0.9 0 0.1 1
8
 1 0 0 1 0.5 0 0.5 1
8
 1 0 0 1 0.4 0 0.6 1
8
 1 0 0 1 0.8 0 0.2 1
8
 1 0 0 1 0.3 0 0.7 1
8
 1 0 0 1 0.5 0 0.5 1
8
 1 0 0 1 0.5 0 0.5 1
8
 1 0 0 1 0.9 0 0.1 1
8
 1 0 0 1 0.6 0 0.4 1
8
 1 0 0 1 0.9 0 0.1 1
8
 1 0 0 1 0.9 0 0.1 1
8
 1 0 0 1 0.9 0 0.1 1
8
 1 0 0 1 0.9 0 0.1 1
8
 1 0 0 1 0.9 0 0.1 1
8
 1 0 0 1 0.9 0 0.1 1
8
 1 0 0 1 0.01 0 0.99 1
8
 1 0 0 1 0.9 0 0.1 1
8
 1 0 0 1 0.2 0 0.8 1
8
 1 0 0 1 0.7 0 0.3 1
8
 1 0 0 1 0.7 0 0.3 1
8
 1 0 0 1 0.9 0 0.1 1
8
 1 0 0 1 0.5 0 0.5 1
8
 1 0 0 1 0.9 0 0.1 1
8
 1 0 0 1 0.98 0 0.02 1
8
 1 0 0 1 0.5 0 0.5 1
8
 1 0 0 1 0.5 0 0.5 1
8
 1 0 0 1 0.7 0 0.3 1
8
 1 0 0 1 0.5 0 0.5 1
8
 1 0 0 1 0.8 0 0.2 1
8
 1 0 0 1 0.9 0 0.1 1
8
 1 0 0 1 0.9 0 0.1 1
8
 1 0 0 1 0.4 0 0.6 1
8
 1 0 0 1 0.9 0 0.1 1
8
 1 0 0 1 0.5 0 0.5 1
8
 1 0 0 1 0.2 0 0.8 1
8
 1 0 0 1 0.9 0 0.1 1
8
 1 0 0 1 0.9 0 0.1 1
8
 1 0 0 1 0.5 0 0.5 1
8
 1 0 0 1 0.9 0 0.1 1
8
 1 0 0 1 0.9 0 0.1 1
8
 1 0 0 1 0.9 0 0.1 1
8
 1 0 0 1 0.67 0 0.33 1
8
 1 0 0 1 0.5 0 0.5 1
8
 1 0 0 1 0.89 0 0.11 1
8
 1 0 0 1 0.3 0 0.7 1
8
 1 0 0 1 0.3 0 0.7 1
8
 1 0 0 1 0.9 0 0.1 1
8
 1 0 0 1 0.9 0 0.1 1
8
 1 0 0 1 0.1 0 0.9 1
8
 1 0 0 1 0.9 0 0.1 1
8
 1 0 0 1 0.34 0 0.66 1
8
 1 0 0 1 0.9 0 0.1 1
8
 1 0 0 1 0.9 0 0.1 1
8
 1 0 0 1 0.9 0 0.1 1
8
 1 0 0 1 0.5 0 0.5 1
8
 1 0 0 1 0.9 0 0.1 1
8
 1 0 0 1 0.9 0 0.1 1
8
 1 0 0 1 0.5 0 0.5 1
8
 1 0 0 1 0.5 0 0.5 1
8
 1 0 0 1 0.9 0 0.1 1
8
 1 0 0 1 0.9 0 0.1 1
8
 1 0 0 1 0.9 0 0.1 1
8
 1 0 0 1 0.7 0 0.3 1
8
 1 0 0 1 0.5 0 0.5 1
8
 1 0 0 1 0.9 0 0.1 1
8
 1 0 0 1 0.72 0 0.28 1
8
 1 0 0 1 0.72 0 0.28 1
8
 1 0 0 1 0.9 0 0.1 1
8
 1 0 0 1 0.9 0 0.1 1
8
 1 0 0 1 0.9 0 0.1 1
8
 1 0 0 1 0.25 0 0.75 1
8
 1 0 0 1 0.5 0 0.5 1
8
 1 0 0 1 0.7 0 0.3 1
8
 1 0 0 1 0.9 0 0.1 1
8
 1 0 0 1 0.9 0 0.1 1
8
 1 0 0 1 0.4 0 0.6 1
8
 1 0 0 1 0.9 0 0.1 1
8
 1 0 0 1 0.5 0 0.5 1
8
 1 0 0 1 0.9 0 0.1 1
8
 1 0 0 1 0.2 0 0.8 1
8
 1 0 0 1 0.8 0 0.2 1
8
 1 0 0 1 0.8 0 0.2 1
8
 1 0 0 1 0.9 0 0.1 1
8
 1 0 0 1 0.5 0 0.5 1
8
 1 0 0 1 0.9 0 0.1 1
8
 1 0 0 1 0.5 0 0.5 1
8
 1 0 0 1 0.9 0 0.1 1
8
 1 0 0 1 0.9 0 0.1 1
8
 1 0 0 1 0.9 0 0.1 1
8
 1 0 0 1 0.9 0 0.1 1
8
 1 0 0 1 0.9 0 0.1 1
8
 1 0 0 1 0.9 0 0.1 1
8
 1 0 0 1 0.1 0 0.9 1
8
 1 0 0 1 0.5 0 0.5 1
8
 1 0 0 1 0.9 0 0.1 1
8
 1 0 0 1 0.9 0 0.1 1
8
 1 0 0 1 0.5 0 0.5 1
8
 1 0 0 1 0.7 0 0.3 1
8
 1 0 0 1 0.9 0 0.1 1
8
 1 0 0 1 0.9 0 0.1 1
8
 1 0 0 1 0.7 0 0.3 1
8
 1 0 0 1 0.9 0 0.1 1
8
 1 0 0 1 0.3 0 0.7 1
8
 1 0 0 1 0.3 0 0.7 1
8
 1 0 0 1 0.3 0 0.7 1
8
 1 0 0 1 0.9 0 0.1 1
8
 1 0 0 1 0.9 0 0.1 1
8
 1 0 0 1 0.3 0 0.7 1
8
 1 0 0 1 0.5 0 0.5 1
8
 1 0 0 1 0.1 0 0.9 1
8
 1 0 0 1 0.1 0 0.9 1
8
 1 0 0 1 0.3 0 0.7 1
8
 1 0 0 1 0.9 0 0.1 1
8
 1 0 0 1 0.2 0 0.8 1
8
 1 0 0 1 0.9 0 0.1 1
8
 1 0 0 1 0.9 0 0.1 1
8
 1 0 0 1 0.3 0 0.7 1
8
 1 0 0 1 0.5 0 0.5 1
8
 1 0 0 1 0.9 0 0.1 1
8
 1 0 0 1 0.8 0 0.2 1
8
 1 0 0 1 0.9 0 0.1 1
8
 1 0 0 1 0.6 0 0.4 1
2
 0.03 1
8
 1 0 0 1 0 1 0 1
8
 1 0 0 1 0 0 1 1
8
 1 0 0 1 0 0 1 1
8
 1 0 0 1 0 0 1 1
8
 1 0 0 1 0 0 1 1
8
 1 0 0 1 0 0 1 1
8
 1 0 0 1 0 0 1 1
8
 1 0 0 1 0 0 1 1
8
 1 0 0 1 0 0 1 1
8
 1 0 0 1 0 0 1 1
8
 1 0 0 1 0 0 1 1
8
 1 0 0 1 0 0 1 1
8
 1 0 0 1 0 0 1 1
8
 1 0 0 1 0 0 1 1
8
 1 0 0 1 0 0 1 1
8
 1 0 0 1 0 0 1 1
8
 1 0 0 1 0 0 1 1
8
 1 0 0 1 0 0 1 1
8
 1 0 0 1 0 0 1 1
8
 1 0 0 1 0 0 1 1
8
 1 0 0 1 0 0 1 1
8
 1 0 0 1 0 0 1 1
8
 1 0 0 1 0 0 1 1
8
 1 0 0 1 0 0 1 1
8
 1 0 0 1 0 0 1 1
8
 1 0 0 1 0 0 1 1
8
 1 0 0 1 0 0 1 1
8
 1 0 0 1 0 0 1 1
8
 1 0 0 1 0 0 1 1
8
 1 0 0 1 0 0 1 1
8
 1 0 0 1 0 0 1 1
8
 1 0 0 1 0 0 1 1
8
 1 0 0 1 0 0 1 1
8
 1 0 0 1 0 0 1 1
8
 1 0 0 1 0 0 1 1
8
 1 0 0 1 0 0 1 1
8
 1 0 0 1 0 0 1 1
8
 1 0 0 1 0 0 1 1
8
 1 0 0 1 0 0 1 1
8
 1 0 0 1 0 0 1 1
8
 1 0 0 1 0 0 1 1
8
 1 0 0 1 0 0 1 1
8
 1 0 0 1 0 0 1 1
8
 1 0 0 1 0 0 1 1
8
 1 0 0 1 0 0 1 1
8
 1 0 0 1 0 0 1 1
8
 1 0 0 1 0 0 1 1
8
 1 0 0 1 0 0 1 1
8
 1 0 0 1 0 0 1 1
8
 1 0 0 1 0 0 1 1
8
 1 0 0 1 0 0 1 1
8
 1 0 0 1 0 0 1 1
8
 1 0 0 1 0 0 1 1
8
 1 0 0 1 0 0 1 1
8
 1 0 0 1 0 0 1 1
8
 1 0 0 1 0 0 1 1
8
 1 0 0 1 0 0 1 1
8
 1 0 0 1 0 0 1 1
8
 1 0 0 1 0 0 1 1
8
 1 0 0 1 0 0 1 1
8
 1 0 0 1 0 0 1 1
8
 1 0 0 1 0 0 1 1
8
 1 0 0 1 0 0 1 1
2
 0.03 1
8
 1 0 0 1 0.9 0.1 0 1
8
 1 0 0 1 0.2 0 0.8 1
8
 1 0 0 1 0.4 0 0.6 1
8
 1 0 0 1 0.5 0 0.5 1
8
 1 0 0 1 0.9 0 0.1 1
8
 1 0 0 1 0.5 0 0.5 1
8
 1 0 0 1 0.89 0 0.11 1
8
 1 0 0 1 0.5 0 0.5 1
8
 1 0 0 1 0 0 1 1
8
 1 0 0 1 0.89 0 0.11 1
8
 1 0 0 1 0.5 0 0.5 1
8
 1 0 0 1 0.2 0 0.8 1
8
 1 0 0 1 0.4 0 0.6 1
8
 1 0 0 1 0.1 0 0.9 1
8
 1 0 0 1 0.5 0 0.5 1
8
 1 0 0 1 0.5 0 0.5 1
8
 1 0 0 1 0.1 0 0.9 1
8
 1 0 0 1 0 0 1 1
8
 1 0 0 1 0.5 0 0.5 1
8
 1 0 0 1 0.01 0 0.99 1
8
 1 0 0 1 0 0 1 1
8
 1 0 0 1 0 0 1 1
8
 1 0 0 1 0 0 1 1
8
 1 0 0 1 0.5 0 0.5 1
8
 1 0 0 1 0.9 0 0.1 1
8
 1 0 0 1 0.5 0 0.5 1
8
 1 0 0 1 0 0 1 1
8
 1 0 0 1 0.5 0 0.5 1
8
 1 0 0 1 0.9 0 0.1 1
8
 1 0 0 1 0.5 0 0.5 1
8
 1 0 0 1 0.1 0 0.9 1
8
 1 0 0 1 0 0 1 1
8
 1 0 0 1 0.1 0 0.9 1
8
 1 0 0 1 0.5 0 0.5 1
8
 1 0 0 1 0.9 0 0.1 1
8
 1 0 0 1 0.5 0 0.5 1
8
 1 0 0 1 0.5 0 0.5 1
8
 1 0 0 1 0.9 0 0.1 1
8
 1 0 0 1 0.09 0 0.91 1
8
 1 0 0 1 0.5 0 0.5 1
8
 1 0 0 1 0.1 0 0.9 1
8
 1 0 0 1 0.5 0 0.5 1
8
 1 0 0 1 0.5 0 0.5 1
8
 1 0 0 1 0.9 0 0.1 1
8
 1 0 0 1 0.09 0 0.91 1
8
 1 0 0 1 0.5 0 0.5 1
8
 1 0 0 1 0.5 0 0.5 1
8
 1 0 0 1 0 0 1 1
8
 1 0 0 1 0 0 1 1
8
 1 0 0 1 0.5 0 0.5 1
8
 1 0 0 1 0 0 1 1
8
 1 0 0 1 0.5 0 0.5 1
8
 1 0 0 1 0.1 0 0.9 1
8
 1 0 0 1 0.5 0 0.5 1
8
 1 0 0 1 0.57 0 0.43 1
8
 1 0 0 1 0 0 1 1
8
 1 0 0 1 0 0 1 1
8
 1 0 0 1 0 0 1 1
8
 1 0 0 1 0.5 0 0.5 1
8
 1 0 0 1 0.5 0 0.5 1
8
 1 0 0 1 0.9 0 0.1 1
8
 1 0 0 1 0 0 1 1
8
 1 0 0 1 0.5 0 0.5 1
8
 1 0 0 1 0.1 0 0.9 1
8
 1 0 0 1 0.5 0 0.5 1
8
 1 0 0 1 0.1 0 0.9 1
8
 1 0 0 1 0.4 0 0.6 1
8
 1 0 0 1 0.5 0 0.5 1
8
 1 0 0 1 0 0 1 1
8
 1 0 0 1 0.5 0 0.5 1
8
 1 0 0 1 0.9 0 0.1 1
8
 1 0 0 1 0.5 0 0.5 1
8
 1 0 0 1 0 0 1 1
8
 1 0 0 1 0.89 0 0.11 1
8
 1 0 0 1 0.5 0 0.5 1
8
 1 0 0 1 0.5 0 0.5 1
8
 1 0 0 1 0.5 0 0.5 1
8
 1 0 0 1 0.4 0 0.6 1
8
 1 0 0 1 0.5 0 0.5 1
8
 1 0 0 1 0 0 1 1
8
 1 0 0 1 0.1 0 0.9 1
8
 1 0 0 1 0.6 0 0.4 1
8
 1 0 0 1 0.5 0 0.5 1
8
 1 0 0 1 0.1 0 0.9 1
8
 1 0 0 1 0.4 0 0.6 1
8
 1 0 0 1 0.5 0 0.5 1
8
 1 0 0 1 0 0 1 1
8
 1 0 0 1 0 0 1 1
8
 1 0 0 1 0.1 0 0.9 1
8
 1 0 0 1 0.59 0 0.41 1
8
 1 0 0 1 0 0 1 1
8
 1 0 0 1 0.4 0 0.6 1
8
 1 0 0 1 0 0 1 1
8
 1 0 0 1 0.5 0 0.5 1
8
 1 0 0 1 0.9 0 0.1 1
8
 1 0 0 1 0.5 0 0.5 1
8
 1 0 0 1 0 0 1 1
8
 1 0 0 1 0 0 1 1
8
 1 0 0 1 0.9 0 0.1 1
8
 1 0 0 1 0.4 0 0.6 1
8
 1 0 0 1 0.5 0 0.5 1
8
 1 0 0 1 0.1 0 0.9 1
8
 1 0 0 1 0.4 0 0.6 1
8
 1 0 0 1 0 0 1 1
8
 1 0 0 1 0.5 0 0.5 1
8
 1 0 0 1 0.09 0 0.91 1
8
 1 0 0 1 0 0 1 1
8
 1 0 0 1 0 0 1 1
8
 1 0 0 1 0 0 1 1
8
 1 0 0 1 0.89 0 0.11 1
8
 1 0 0 1 0 0 1 1
8
 1 0 0 1 0 0 1 1
8
 1 0 0 1 0 0 1 1
8
 1 0 0 1 0.5 0 0.5 1
8
 1 0 0 1 0.5 0 0.5 1
8
 1 0 0 1 0.5 0 0.5 1
8
 1 0 0 1 0.5 0 0.5 1
8
 1 0 0 1 0.5 0 0.5 1
8
 1 0 0 1 0.5 0 0.5 1
8
 1 0 0 1 0 0 1 1
8
 1 0 0 1 0.5 0 0.5 1
8
 1 0 0 1 0.4 0 0.6 1
8
 1 0 0 1 0.5 0 0.5 1
8
 1 0 0 1 0.7 0 0.3 1
8
 1 0 0 1 0.5 0 0.5 1
8
 1 0 0 1 0.89 0 0.11 1
8
 1 0 0 1 0.5 0 0.5 1
8
 1 0 0 1 0.9 0 0.1 1
8
 1 0 0 1 0 0 1 1
8
 1 0 0 1 0.9 0 0.1 1
8
 1 0 0 1 0.5 0 0.5 1
8
 1 0 0 1 0.5 0 0.5 1
8
 1 0 0 1 0 0 1 1
8
 1 0 0 1 0 0 1 1
8
 1 0 0 1 0.75 0 0.25 1
8
 1 0 0 1 0 0 1 1
8
 1 0 0 1 0.09 0 0.91 1
8
 1 0 0 1 0.5 0 0.5 1
8
 1 0 0 1 0 0 1 1
8
 1 0 0 1 0.5 0 0.5 1
8
 1 0 0 1 0 0 1 1
8
 1 0 0 1 0 0 1 1
8
 1 0 0 1 0.9 0 0.1 1
8
 1 0 0 1 0.7 0 0.3 1
8
 1 0 0 1 0.4 0 0.6 1
8
 1 0 0 1 0.5 0 0.5 1
8
 1 0 0 1 0.1 0 0.9 1
8
 1 0 0 1 0 0 1 1
8
 1 0 0 1 0.6 0 0.4 1
8
 1 0 0 1 0.5 0 0.5 1
8
 1 0 0 1 0.4 0 0.6 1
8
 1 0 0 1 0.9 0 0.1 1
8
 1 0 0 1 0.5 0 0.5 1
8
 1 0 0 1 0.9 0 0.1 1
8
 1 0 0 1 0 0 1 1
8
 1 0 0 1 0 0 1 1
8
 1 0 0 1 0.4 0 0.6 1
8
 1 0 0 1 0 0 1 1
8
 1 0 0 1 0.09 0 0.91 1
8
 1 0 0 1 0 0 1 1
8
 1 0 0 1 0.9 0 0.1 1
8
 1 0 0 1 0.5 0 0.5 1
8
 1 0 0 1 0 0 1 1
8
 1 0 0 1 0 0 1 1
8
 1 0 0 1 0.9 0 0.1 1
8
 1 0 0 1 0 0 1 1
8
 1 0 0 1 0.9 0 0.1 1
8
 1 0 0 1 0 0 1 1
8
 1 0 0 1 0.05 0 0.95 1
8
 1 0 0 1 0.5 0 0.5 1
8
 1 0 0 1 0.5 0 0.5 1
8
 1 0 0 1 0.5 0 0.5 1
8
 1 0 0 1 0 0 1 1
8
 1 0 0 1 0.5 0 0.5 1
8
 1 0 0 1 0 0 1 1
8
 1 0 0 1 0.1 0 0.9 1
8
 1 0 0 1 0 0 1 1
8
 1 0 0 1 0.5 0 0.5 1
8
 1 0 0 1 0 0 1 1
8
 1 0 0 1 0 0 1 1
8
 1 0 0 1 0.9 0 0.1 1
8
 1 0 0 1 0.01 0 0.99 1
2
 0.03 1
8
 1 0 0.6 0.4 0.5 0.5 0.3 0.7
8
 1 0 0 1 0.5 0 0.5 1
8
 1 0 0 1 0.5 0 0.5 1
8
 1 0 0 1 0.89 0 0.11 1
8
 1 0 0 1 0 0 1 1
8
 1 0 0 1 0.89 0 0.11 1
8
 1 0 0 1 0.5 0 0.5 1
8
 1 0 0 1 0.5 0 0.5 1
8
 1 0 0 1 0.5 0 0.5 1
8
 1 0 0 1 0.5 0 0.5 1
8
 1 0 0 1 0.5 0 0.5 1
8
 1 0 0 1 0.5 0 0.5 1
8
 1 0 0 1 0.01 0 0.99 1
8
 1 0 0 1 0.61 0 0.39 1
8
 1 0 0 1 0.5 0 0.5 1
8
 1 0 0 1 0.5 0 0.5 1
8
 1 0 0 1 0.5 0 0.5 1
8
 1 0 0 1 0.89 0 0.11 1
8
 1 0 0 1 0.89 0 0.11 1
8
 1 0 0 1 0.98 0 0.02 1
8
 1 0 0 1 0.01 0 0.99 1
8
 1 0 0 1 0.89 0 0.11 1
8
 1 0 0 1 0 0 1 1
8
 1 0 0 1 0.6 0 0.4 1
8
 1 0 0 1 0.9 0 0.1 1
8
 1 0 0 1 0.5 0 0.5 1
8
 1 0 0 1 0.5 0 0.5 1
8
 1 0 0 1 0.89 0 0.11 1
2
 0.03 1
2
 1 1.8e-07
2
 0.999995 5e-06
2
 1 9e-08
2
 1 8e-08
2
 0.99999 1e-05
2
 0.99999 1e-05
2
 0.99975 0.00025
2
 0.99999 1e-05
2
 0.999993 7e-06
2
 0.99998 2e-05
2
 0.99995 5e-05
2
 1 4e-08
2
 0.99999 1e-05
2
 0.999999 1.4e-06
2
 0.999998 2e-06
2
 0.999977 2.342e-05
2
 0.9999 0.0001
2
 0.9999 0.0001
2
 0.99989 0.00011
2
 0.9999 0.0001
2
 1 1e-08
2
 0.99998 2e-05
2
 0.99998 2.042e-05
2
 0.99995 5e-05
2
 0.99974 0.00026
2
 1 1e-08
2
 0.9993 0.0007
2
 0.99988 0.00012
2
 1 1.1e-07
2
 0.99809 0.00191
2
 0.999996 3.64e-06
2
 0.999999 1.448e-06
2
 0.99999 1e-05
2
 0.999999 1.26e-06
2
 0.99998 2e-05
2
 0.99996 4e-05
2
 0.9999 0.0001
2
 0.99998 2e-05
2
 0.9995 0.0005
2
 1 1e-08
2
 0.9999 0.0001
2
 0.9992 0.0008
2
 1 1e-08
2
 0.99992 8e-05
2
 0.9995 0.0005
2
 0.9999 0.0001
2
 0.99989 0.00011
2
 0.99991 9e-05
2
 0.9996 0.0004
2
 0.999957 4.295e-05
2
 0.99995 5e-05
2
 1 6e-08
2
 0.9995 0.0005
2
 0.99999 1e-05
2
 0.9999 0.0001
2
 1 1.1e-07
2
 0.999999 1e-06
2
 0.9999 0.0001
2
 0.9998 0.0002
2
 0.99995 5e-05
2
 0.99991 9e-05
2
 0.9998 0.0002
2
 0.9996 0.0004
2
 1 8e-08
2
 0.99998 2e-05
2
 0.99999 1e-05
2
 0.99986 0.00014
2
 0.99982 0.00018
2
 0.9999 0.0001
2
 1 4e-08
2
 0.99995 5e-05
2
 0.99995 5e-05
2
 0.999999 6.9e-07
2
 0.9998 0.0002
2
 0.9998 0.0002
2
 0.99984 0.00016
2
 0.99998 2e-05
2
 0.9999 0.0001
2
 0.99999 1e-05
2
 0.99995 5e-05
2
 0.999989 1.08e-05
2
 0.9975 0.0025
2
 0.9995 0.0005
2
 0.99994 6e-05
2
 0.9998 0.0002
2
 0.9999 0.0001
2
 0.9997 0.0003
2
 0.99991 9e-05
2
 0.99989 0.00011
2
 0.99993 7e-05
2
 0.999999 1e-06
2
 0.9999 0.0001
2
 0.9999 0.0001
2
 0.9999 0.0001
2
 0.99991 9e-05
2
 1 3.6e-07
2
 0.9999 0.0001
2
 0.999 0.001
2
 1 1e-08
2
 1 4e-08
2
 0.99989 0.00011
2
 0.9999 0.0001
2
 0.999999 6.6e-07
2
 0.9999 0.0001
2
 0.9999 0.0001
2
 1 1.7e-07
2
 0.999977 2.291e-05
2
 0.999999 1.2e-06
2
 0.999 0.001
2
 0.999 0.001
2
 0.999999 1e-06
2
 0.9999 0.0001
2
 0.999981 1.92e-05
2
 0.99989 0.00011
2
 0.999959 4.084e-05
2
 0.999 0.001
2
 0.99975 0.00025
2
 0.995 0.005
2
 0.999999 1e-06
2
 0.99998 2.003e-05
2
 0.9985 0.0015
2
 0.99987 0.00013
2
 0.99989 0.00011
2
 0.999998 2e-06
2
 0.9997 0.0003
2
 0.9995 0.0005
2
 0.99995 5e-05
2
 0.99999 1e-05
2
 1 1e-08
2
 0.9995 0.0005
2
 0.9998 0.0002
2
 0.9998 0.0002
2
 1 2.8e-07
2
 0.999991 8.59e-06
2
 0.99995 5e-05
2
 0.99995 5e-05
2
 1 1e-08
2
 0.9985 0.0015
2
 0.999999 1e-06
2
 0.99999 1e-05
2
 0.99995 5e-05
2
 0.9991 0.0009
2
 0.9999 0.0001
2
 1 1e-08
2
 0.9999 0.0001
2
 0.999999 1e-06
2
 0.999995 5.23e-06
2
 0.9995 0.0005
2
 0.999996 4e-06
2
 1 1.6e-07
2
 0.9999 0.0001
2
 0.99962 0.00038
2
 0.9999 0.0001
2
 0.99998 2e-05
2
 0.9999 0.0001
2
 0.99989 0.00011
2
 0.9999 0.0001
2
 0.999969 3.12e-05
2
 0.999999 5.9e-07
2
 0.999999 1e-06
2
 0.9992 0.0008
2
 0.999993 6.77e-06
2
 0.9999 0.0001
2
 1 5e-08
2
 0.999982 1.82e-05
2
 0.9995 0.0005
2
 0.9995 0.0005
2
 0.99999 1e-05
2
 1 1.4e-07
2
 0.9998 0.0002
2
 0.999953 4.733e-05
2
 0.99998 2e-05
2
 0.9999 0.0001
2
 0.9999 0.0001
2
 1 1e-08
2
 0.9999 0.0001
2
 0.9995 0.0005
2
 0.99994 6e-05
2
 1 1e-08
2
 0.99989 0.00011
2
 0.99991 9e-05
2
 0.99991 9e-05
2
 0.9999 0.0001
2
 0.999997 3.18e-06
2
 0.99987 0.00013
2
 1 1e-08
2
 0.9999 0.0001
2
 0.99995 5e-05
2
 1 9e-08
2
 1 1.1e-07
2
 0.99997 3e-05
2
 0.9995 0.0005
2
 1 2.9e-07
2
 1 6e-08
2
 1 2e-08
2
 0.999992 7.67e-06
2
 0.99994 6e-05
2
 0.999994 6e-06
2
 0.9999 0.0001
2
 0.9998 0.0002
2
 0.99989 0.00011
2
 0.999999 1e-06
2
 0.99997 3e-05
2
 0.99997 3e-05
2
 0.999555 0.00044466
2
 0.999999 1e-06
2
 0.9999 0.0001
2
 0.999998 2.143e-06
2
 0.999999 1e-06
2
 0.99995 5e-05
2
 1 5e-07
2
 1 1e-08
2
 0.99989 0.00011
2
 1 1e-08
2
 0.999985 1.48e-05
2
 0.9999 0.0001
2
 0.999999 1e-06
2
 0.99995 5e-05
2
 0.9999 0.0001
2
 0.9999 0.0001
2
 1 1e-08
2
 1 1e-08
2
 0.9999 0.0001
2
 1 1.1e-07
2
 0.99997 3e-05
2
 1 1e-07
2
 1 1e-07
2
 0.9999 0.0001
2
 0.99997 3e-05
2
 0.99999 1e-05
2
 0.9997 0.0003
2
 0.9999 0.0001
2
 0.9999 0.0001
2
 0.99996 4e-05
2
 0.9999 0.0001
2
 0.999585 0.000415
2
 0.999991 9.42e-06
2
 0.9999 0.0001
2
 0.9998 0.0002
2
 0.999999 1e-06
2
 0.9997 0.0003
2
 0.9999 0.0001
2
 0.99993 7e-05
2
 0.9995 0.0005
2
 0.9999 0.0001
2
 0.99995 5e-05
2
 1 3.3e-07
2
 0.99995 5e-05
2
 0.9999 0.0001
2
 0.999999 8.1e-07
2
 0.99999 1e-05
2
 0.99995 5e-05
2
 0.99999 1e-05
2
 0.99989 0.00011
2
 0.99989 0.00011
2
 0.9999 0.0001
2
 0.9999 0.0001
2
 0.99975 0.00025
2
 0.999996 3.67e-06
2
 0.9999 0.0001
2
 0.999999 1e-06
2
 0.9985 0.0015
2
 0.999995 5.26e-06
2
 0.999943 5.69e-05
2
 0.9999 0.0001
2
 0.9999 0.0001
2
 0.99999 9.61e-06
2
 0.999913 8.704e-05
2
 0.9985 0.0015
2
 0.999999 9.9e-07
2
 0.99999 1e-05
2
 0.9999 0.0001
2
 0.998 0.002
2
 1 6e-08
2
 0.999998 2e-06
2
 0.999999 1e-06
2
 0.99989 0.00011
2
 0.99995 5e-05
2
 0.9999 0.0001
2
 0.999964 3.587e-05
2
 0.99974 0.00026
2
 0.9994 0.0006
2
 0.99996 4e-05
2
 0.99989 0.00011
2
 0.99982 0.00018
2
 0.999995 5.24e-06
2
 0.9999 0.0001
2
 0.9999 0.0001
2
 0.99981 0.00019
2
 0.9999 0.0001
2
 0.9999 0.0001
2
 1 1e-08
2
 1 1.2e-07
2
 1 1.7e-07
2
 0.9999 0.0001
2
 0.999991 8.64e-06
2
 0.999996 3.57e-06
2
 1 1.1e-07
2
 0.99998 2e-05
2
 0.9999 0.0001
2
 0.99999 1e-05
2
 0.99996 4e-05
2
 0.9999 0.0001
2
 1 9e-08
2
 0.999973 2.7e-05
2
 0.99995 5e-05
2
 0.99999 1e-05
2
 1 1.1e-07
2
 0.9999 0.0001
2
 0.9999 0.0001
2
 0.99999 1e-05
2
 1 2e-07
2
 0.999999 6e-07
2
 0.9991 0.0009
2
 0.99995 5e-05
2
 1 1e-08
2
 1 1.6e-07
2
 0.9999 0.0001
2
 0.99985 0.00015
2
 1 2e-08
2
 0.999999 1e-06
2
 0.99995 5e-05
2
 0.9999 0.0001
2
 0.9998 0.0002
2
 0.9995 0.0005
2
 1 1e-08
2
 0.99999 1e-05
2
 0.999997 2.88e-06
2
 0.9995 0.0005
2
 0.99922 0.00078
2
 0.9998 0.0002
2
 0.99995 5e-05
2
 1 1e-08
2
 0.9999 0.0001
2
 0.99989 0.00011
2
 0.9998 0.0002
2
 0.9999 0.0001
2
 1 5e-07
2
 0.9994 0.0006
2
 0.99999 1e-05
2
 0.9999 0.0001
2
 0.9995 0.0005
2
 0.99995 5e-05
2
 0.99999 1e-05
2
 0.999999 1e-06
2
 0.9999 0.0001
2
 1 7e-08
2
 0.9995 0.0005
2
 0.99984 0.00016
2
 0.9996 0.0004
2
 0.9999 0.0001
2
 0.99997 3e-05
2
 0.999 0.001
2
 0.996 0.004
2
 0.999998 2e-06
2
 1 4e-08
2
 0.9999 0.0001
2
 0.99998 2e-05
2
 0.99995 5e-05
2
 0.99984 0.00016
2
 0.9965 0.0035
2
 0.9999 0.0001
2
 0.9856 0.0144
2
 0.999998 2.24e-06
2
 0.99975 0.00025
2
 0.99985 0.00015
2
 0.99996 4e-05
2
 0.9999 0.0001
2
 0.999999 1e-06
2
 0.9998 0.0002
2
 0.999838 0.0001616
2
 0.99997 3e-05
2
 0.9999 0.0001
2
 0.99995 5e-05
2
 1 1e-08
2
 0.9988 0.0012
2
 0.99995 5e-05
2
 0.9995 0.0005
2
 1 2.3e-07
2
 0.999979 2.06e-05
2
 0.999999 6.2e-07
2
 0.99998 2e-05
2
 0.9999 0.0001
2
 0.99974 0.00026
2
 1 1.2e-07
2
 0.999999 6.6e-07
2
 0.999921 7.933e-05
2
 0.999994 6.29e-06
2
 0.99985 0.00015
2
 0.9999 0.0001
2
 0.9997 0.0003
2
 0.99998 2e-05
2
 0.999997 2.82e-06
2
 0.99999 1e-05
2
 0.9999 0.0001
2
 0.9999 0.0001
2
 1 2e-08
2
 1 2e-08
2
 1 3.1e-07
2
 0.9994 0.0006
2
 0.9995 0.0005
2
 0.9999 0.0001
2
 0.999907 9.332e-05
2
 0.999998 2e-06
2
 1 1e-08
2
 0.9994 0.0006
2
 0.999993 6.69e-06
2
 0.9999 0.0001
2
 0.999999 5.4e-07
2
 0.999993 6.53e-06
2
 0.999999 1e-06
2
 0.9999 0.0001
2
 0.9999 0.0001
2
 0.9995 0.0005
2
 0.999999 1e-06
2
 0.99995 5e-05
2
 0.999992 8e-06
2
 1 4e-08
2
 0.9999 0.0001
2
 0.99975 0.00025
2
 0.99764 0.00236
2
 0.99999 1e-05
2
 0.9999 0.0001
2
 1 2.9e-07
2
 1 1.1e-07
2
 0.9999 0.0001
2
 0.999994 6.39e-06
2
 0.9999 0.0001
2
 0.99999 1e-05
2
 0.99999 1e-05
2
 0.999921 7.93e-05
2
 0.9995 0.0005
2
 0.9999 0.0001
2
 0.99999 1e-05
2
 0.999722 0.0002777
2
 0.99997 3e-05
2
 0.9995 0.0005
2
 0.99995 5e-05
2
 0.99997 3e-05
2
 0.9997 0.0003
2
 0.9995 0.0005
2
 0.9999 0.0001
2
 1 5e-07
2
 0.9999 0.0001
2
 1 1e-08
2
 0.9991 0.0009
2
 0.9995 0.0005
2
 1 1e-08
2
 0.99994 6.019e-05
2
 0.9999 0.0001
2
 0.999 0.001
2
 0.9995 0.0005
2
 0.99875 0.00125
2
 0.999 0.001
2
 0.99989 0.00011
2
 0.99989 0.00011
2
 0.999999 1e-06
2
 0.9999 0.0001
2
 0.99997 3e-05
2
 1 1.1e-07
2
 0.9999 0.0001
2
 1 4e-08
2
 0.99997 3e-05
2
 0.999974 2.595e-05
2
 1 5e-08
2
 0.9994 0.0006
2
 0.99997 3e-05
2
 0.999982 1.776e-05
2
 1 2.3e-07
2
 0.99998 2e-05
2
 1 5e-07
1
 1

